c 47_4_checker_5cl.cnf
c
c field = 47
c formula set type = 4_checker_5cl
c
p cnf 5 6
90 
94 
96 
98 
-100 
91 
95 
97 
99 
-101 
2 
32 
62 
122 
-152 
3 
33 
63 
123 
-153 
60 
124 
156 
188 
-220 
61 
125 
157 
189 
-221 
